Version identifier: 22.1.0.0 | 2022-03-09 | 1a383f8ce
CPXPARAM_Read_DataCheck                          1
CPXPARAM_TimeLimit                               600
Tried aggregator 4 times.
MIP Presolve eliminated 98458 rows and 9140 columns.
MIP Presolve modified 1140 coefficients.
Aggregator did 91561 substitutions.
Reduced MIP has 9614 rows, 93213 columns, and 196227 nonzeros.
Reduced MIP has 93175 binaries, 38 generals, 0 SOSs, and 0 indicators.
Presolve time = 1.25 sec. (1276.11 ticks)
Tried aggregator 1 time.
Detecting symmetries...
Reduced MIP has 9614 rows, 93213 columns, and 196227 nonzeros.
Reduced MIP has 93175 binaries, 38 generals, 0 SOSs, and 0 indicators.
Presolve time = 0.22 sec. (153.16 ticks)
Probing fixed 57 vars, tightened 0 bounds.
Probing time = 0.48 sec. (45.82 ticks)
Clique table members: 188581.
MIP emphasis: balance optimality and feasibility.
MIP search method: dynamic search.
Parallel mode: deterministic, using up to 8 threads.
Root relaxation solution time = 1.92 sec. (816.65 ticks)

        Nodes                                         Cuts/
   Node  Left     Objective  IInf  Best Integer    Best Bound    ItCnt     Gap

      0     0       38.3973  7161                     38.3973       28         
      0     0       62.0000   863                    Cuts: 45    13279         
      0     0       62.0000   890                    Cuts: 54    20937         
      0     0       62.0000   911                ZeroHalf: 11    32655         
Heuristic still looking.
Heuristic still looking.
Heuristic still looking.
*     0+    0                           69.0000       62.0000            10.14%
*     0+    0                           67.0000       62.0000             7.46%
      0     2       62.0000   911       67.0000       62.0000    32655    7.46%
Elapsed time = 304.22 sec. (173062.95 ticks, tree = 0.02 MB, solutions = 2)
      1     3       62.0000   670       67.0000       62.0000    45226    7.46%
      2     3       62.0000   690       67.0000       62.0000    43767    7.46%
      3     4       62.0000   485       67.0000       62.0000    53028    7.46%
      4     6       62.0000   464       67.0000       62.0000    72891    7.46%
      6     5       62.0000   694       67.0000       62.0000    66191    7.46%
*     7+    7                           66.0000       62.0000             6.06%
      7     9       62.0000   691       66.0000       62.0000    95463    6.06%
      8     8       62.0000   474       66.0000       62.0000    88167    6.06%
     10     6       62.0000   580       66.0000       62.0000    73822    6.06%
     11     8       62.0000   402       66.0000       62.0000    91955    6.06%
     12     7       62.0000   388       66.0000       62.0000    81447    6.06%
Elapsed time = 445.63 sec. (210929.22 ticks, tree = 0.04 MB, solutions = 3)
     13    11       62.0000   470       66.0000       62.0000   105098    6.06%
     16    16       62.0000   656       66.0000       62.0000   156330    6.06%
     19    18       62.0000   673       66.0000       62.0000   191996    6.06%
     20    18       62.0000  1026       66.0000       62.0000   205412    6.06%
     22     9       62.0000   730       66.0000       62.0000   107632    6.06%
     24    14       62.0417   605       66.0000       62.0000   138930    6.06%
     25    19       62.0000  1483       66.0000       62.0000   220962    6.06%
     28    12       62.0000   472       66.0000       62.0000   122326    6.06%
     29    20       62.0000   718       66.0000       62.0000   224424    6.06%
     32    23       62.0417  1104       66.0000       62.0000   230597    6.06%
Elapsed time = 542.00 sec. (224375.91 ticks, tree = 0.62 MB, solutions = 3)
     34    24       62.0417   761       66.0000       62.0000   233603    6.06%
     37    23       62.0000   900       66.0000       62.0000   287521    6.06%
     40    23       62.0000   804       66.0000       62.0000   240778    6.06%
     43    32       62.0000   326       66.0000       62.0000   389632    6.06%
     46    26       62.0345  1015       66.0000       62.0000   289855    6.06%
     51    41       62.0667   552       66.0000       62.0000   650329    6.06%
     59    32       62.0000   473       66.0000       62.0000   420671    6.06%
     65    43       62.0765   637       66.0000       62.0000   654906    6.06%
     70    46       62.0410  1225       66.0000       62.0000   717414    6.06%
     75    42       62.0000   692       66.0000       62.0000   485844    6.06%
Elapsed time = 600.07 sec. (236989.59 ticks, tree = 1.23 MB, solutions = 3)

Clique cuts applied:  4
Zero-half cuts applied:  61
Lift and project cuts applied:  1
Gomory fractional cuts applied:  25

Root node processing (before b&c):
  Real time             =  303.84 sec. (172917.86 ticks)
Parallel b&c, 8 threads:
  Real time             =  296.26 sec. (66430.12 ticks)
  Sync time (average)   =   74.56 sec.
  Wait time (average)   =    0.00 sec.
                          ------------
Total (root+branch&cut) =  600.09 sec. (239347.98 ticks)
